50
3238 6201 85 9829 8222 9991 2634 1995 548 1939 242 6918 3657 8156 7607 3494 1668 3477 303 6484 1898 1488 8885 4371 9461 9803 6640 2498 1478 2466 7367 5119 2980 175 3511 3928 694 2495 2955 4160 4940 5657 8496 2950 949 3032 2161 5757 4763 3211 
4221 7211 1090 10834 9230 11006 3615 2982 1547 2947 1242 7918 4649 9145 8622 4514 2668 4476 1288 7488 2886 2493 9876 5370 10476 10795 7641 3491 2477 3481 8367 6138 3976 1173 4517 4928 1701 3486 3935 5157 5922 6647 9500 3958 1966 4039 3163 6751 5762 4202 
104443
